letting np_cars_plus be 110
letting np_classes be 26
letting np_options be 33
letting quantity_range_min be 5
letting quantity_range_delta be 93
letting maxcars_range_min be 9
letting maxcars_range_delta be 0
letting blksize_delta_range_min be 10
letting blksize_delta_range_delta be 5
letting usage_card_min be 846
letting usage_card_delta be 7